NAME : berlin52.11737.tour
COMMENT : Cost = 2440_11737
COMMENT : Found by LKH [Keld Helsgaun] Thu Nov 16 17:25:38 2017
TYPE : TOUR
DIMENSION : 56
TOUR_SECTION
1
16
47
14
13
27
26
46
44
54
32
45
19
41
8
9
10
33
43
49
53
34
35
37
48
24
25
28
11
51
12
4
6
15
5
38
40
39
36
56
52
55
23
20
50
29
30
2
7
42
21
17
3
18
31
22
-1
EOF
